c Random generated cnf formula, satisfiable: false
p cnf 10 50
1 9 8 0
3 4 -7 0
-10 9 6 0
4 -10 -9 0
2 1 6 0
10 -7 3 0
-7 -1 -8 0
4 8 -10 0
-9 5 10 0
-3 -2 9 0
3 8 7 0
6 -7 2 0
5 -2 9 0
-1 8 -3 0
8 -6 -9 0
-4 -8 10 0
5 -3 10 0
-2 3 8 0
-4 3 9 0
-2 -8 -4 0
5 8 9 0
1 -8 4 0
-5 10 -8 0
5 7 1 0
9 6 -8 0
1 9 -10 0
5 -6 3 0
-9 -7 -1 0
-9 -10 2 0
-7 5 10 0
-10 6 5 0
-1 9 -4 0
-6 -2 -4 0
-2 -1 4 0
-5 -10 -4 0
7 10 4 0
-8 -7 -5 0
7 6 -8 0
-2 8 -1 0
-3 -5 -1 0
4 9 -8 0
-1 -10 -4 0
-2 -7 10 0
1 -3 6 0
-6 8 -5 0
-6 -3 2 0
7 -10 4 0
8 -7 -9 0
-7 9 -8 0
-7 9 -8 0
